Gurobi 12.0.1:   lim:time = 14400
  mip:bestbound = 1
Set parameter LogToConsole to value 1
  tech:outlev = 1
Set parameter Cuts to value 3
  cut:cuts = 3
Set parameter Presolve to value 2
  pre:solve = 2
Set parameter MIPFocus to value 2
  mip:focus = 2
Set parameter Symmetry to value 2
  mip:symmetry = 2
Set parameter InfUnbdInfo to value 1
Gurobi Optimizer version 12.0.1 build v12.0.1rc0 (win64 - Windows 11.0 (26100.2))

CPU model: Intel(R) Core(TM) i7-10700 CPU @ 2.90GHz, instruction set [SSE2|AVX|AVX2]
Thread count: 8 physical cores, 16 logical processors, using up to 16 threads

Non-default parameters:
TimeLimit  14400
MIPFocus  2
Symmetry  2
Cuts  3
InfUnbdInfo  1
Presolve  2

Optimize a model with 474 rows, 628 columns and 3754 nonzeros
Model fingerprint: 0x9a9ace1d
Model has 4 quadratic constraints
Variable types: 35 continuous, 593 integer (0 binary)
Coefficient statistics:
  Matrix range     [1e+00, 1e+05]
  QMatrix range    [1e+00, 1e+00]
  QLMatrix range   [2e+00, 2e+01]
  Objective range  [7e+00, 1e+02]
  Bounds range     [1e+00, 1e+02]
  RHS range        [1e+00, 1e+05]
  QRHS range       [1e+02, 1e+02]
Presolve removed 52 rows and 88 columns
Presolve time: 0.07s
Presolved: 906 rows, 860 columns, 5573 nonzeros
Variable types: 17 continuous, 843 integer (841 binary)
Root relaxation presolve removed 87 rows and 2 columns
Root relaxation presolved: 491 rows, 686 columns, 4900 nonzeros


Root relaxation: objective 1.284885e+02, 102 iterations, 0.01 seconds (0.01 work units)

    Nodes    |    Current Node    |     Objective Bounds      |     Work
 Expl Unexpl |  Obj  Depth IntInf | Incumbent    BestBd   Gap | It/Node Time

     0     0  128.48850    0   38          -  128.48850      -     -    0s
H    0     0                     437.1100000  128.48850  70.6%     -    0s
H    0     0                     426.8400000  128.48850  69.9%     -    0s
     0     0  274.98000    0   30  426.84000  274.98000  35.6%     -    0s
     0     0  277.79000    0   30  426.84000  277.79000  34.9%     -    0s
     0     0  279.97250    0   29  426.84000  279.97250  34.4%     -    0s
H    0     0                     424.3600000  281.55000  33.7%     -    0s
H    0     0                     417.8400000  281.55000  32.6%     -    0s
     0     0  283.00636    0   29  417.84000  283.00636  32.3%     -    0s
     0     0  283.00636    0   25  417.84000  283.00636  32.3%     -    0s
     0     2  283.00636    0   25  417.84000  283.00636  32.3%     -    0s
H   26    56                     395.2400000  283.11421  28.4%  32.1    0s
H   54    56                     394.4400000  283.11421  28.2%  24.1    0s
*  396   259              27     382.1000000  289.43000  24.3%  14.4    0s
H  980   444                     381.3600000  291.82608  23.5%  12.3    1s
H 1648   636                     378.9100000  295.94444  21.9%  12.0    1s
H 2564   823                     375.2200000  300.20000  20.0%  12.0    1s
  9016   996  320.48268   36   13  375.22000  317.10982  15.5%  12.2    5s

Cutting planes:
  Learned: 5
  Gomory: 14
  Lift-and-project: 27
  Cover: 16
  Implied bound: 8
  Clique: 8
  MIR: 11
  StrongCG: 5
  Flow cover: 102
  GUB cover: 1
  Inf proof: 30
  Zero half: 60
  RLT: 20
  Relax-and-lift: 6

Explored 19505 nodes (208180 simplex iterations) in 6.03 seconds (5.87 work units)
Thread count was 16 (of 16 available processors)

Solution count 10: 375.22 378.91 381.36 ... 437.11

Optimal solution found (tolerance 1.00e-04)
Best objective 3.752200000000e+02, best bound 3.752200000000e+02, gap 0.0000%

AMPL MP initial flat model has 628 variables (0 integer, 593 binary);
Objectives: 1 linear; 
Constraints:  474 linear; 4 quadratic;

AMPL MP final model has 628 variables (0 integer, 593 binary);
Objectives: 1 linear; 
Constraints:  474 linear; 4 quadratic;


-----RESULTS INFO-----
running_time:  6.11
TC.best_bound:  375.2199999999999
TC:  375.21999999999997
MIP Gap (%):  1.514935740653697e-14
=== Vehicle Routes ===
Vehicle 1: 0 → 1
Vehicle 1: 1 → 18
Vehicle 1: 3 → 21
Vehicle 1: 12 → 16
Vehicle 1: 16 → 3
Vehicle 1: 18 → 12
Vehicle 2: 0 → 2
Vehicle 2: 2 → 4
Vehicle 2: 4 → 15
Vehicle 2: 15 → 21
Vehicle 3: 0 → 21
Vehicle 4: 0 → 21

=== Full Vehicle Routes ===
Vehicle 1: 0 → 1 → 18 → 12 → 16 → 3 → 0 (89<100)
Vehicle 2: 0 → 2 → 4 → 15 → 0 (46<100)
Vehicle 3: 0 → 0 (0<100)
Vehicle 4: 0 → 0 (0<100)
Arc used by MRT line: y variables:
Customer assigment to PL: u variables:
5 12
6 18
7 16
8 15
9 18
10 12
Node is served by regular vehicle: g variables:
1
2
3
4
18
12
15
16
Customer assigment to Home delivery: gm variables:
1
2
3
4
Node total demands: ntd variables:
1 12 1
2 8 1
3 2 1
4 24 1
8 0 0
9 0 0
10 0 0
17 0 0
18 29 1
19 0 0
20 0 0
11 0 0
12 34 1
13 0 0
14 0 0
15 14 1
16 12 1
Customer's demand delivered to PL: l variables:
5
6
7
8
9
10
Lockers load <= capacity:
0 <= 79
29 <= 78
0 <= 92
0 <= 84
0 <= 81
34 <= 82
0 <= 89
0 <= 93
14 <= 75
12 <= 98
